\* Problem: steiner *\

Minimize
 obj: + 0.310697942972183 x1i21 + 3 x1i22 + 2.82842707633972 x1i23
 + 5.65685415267944 x1i24 + 2.06759119033813 x1i25
 + 5.0990195274353 x1i26 + 6.63718938827515 x1i27
 + 2.82842707633972 x1i28 + 5.39733457565308 x1i29
 + 8.5440034866333 x1i30 + 6.08276271820068 x1i31
 + 6.70820379257202 x1i32 + 13.220965385437 x1i33
 + 13.6014709472656 x1i34 + 8.9442720413208 x1i35
 + 14.2126703262329 x1i36 + 13.9283809661865 x1i37
 + 13.6014709472656 x1i38 + 2.96437740325928 x2i21 + 0 x2i22
 + 5.38516473770142 x2i23 + 8.06225776672363 x2i24
 + 1.52152323722839 x2i25 + 8.06225776672363 x2i26
 + 9.46192741394043 x2i27 + 5.38516473770142 x2i28
 + 6.54169368743896 x2i29 + 10 x2i30 + 9.05538558959961 x2i31 + 6 x2i32
 + 15.9817743301392 x2i33 + 16.4924221038818 x2i34
 + 8.06225776672363 x2i35 + 16.2788200378418 x2i36
 + 16.7630481719971 x2i37 + 16.4924221038818 x2i38
 + 5.91267538070679 x3i21 + 8.06225776672363 x3i22
 + 6.32455539703369 x3i23 + 0 x3i24 + 7.65750169754028 x3i25
 + 5.0990195274353 x3i26 + 2.47176861763 x3i27 + 6.32455539703369 x3i28
 + 9.88146209716797 x3i29 + 12.0415945053101 x3i30
 + 3.60555124282837 x3i31 + 12.2065553665161 x3i32
 + 8.11368179321289 x3i33 + 9 x3i34 + 14.4222049713135 x3i35
 + 15.8113880157471 x3i36 + 9.05538272857666 x3i37 + 9 x3i38
 + 5.95146465301514 x4i21 + 3.60555124282837 x4i22
 + 8.60232543945312 x4i23 + 9.05538558959961 x4i24
 + 5.08137130737305 x4i25 + 10.7703294754028 x4i26
 + 11.0844078063965 x4i27 + 8.60232543945312 x4i28
 + 10.1463642120361 x4i29 + 13.6014709472656 x4i30
 + 11.1803398132324 x4i31 + 9.21954441070557 x4i32
 + 17.1483974456787 x4i33 + 18.0277557373047 x4i34
 + 11.0453605651855 x4i35 + 99999 x4i36 + 18.110767364502 x4i37
 + 18.0277557373047 x4i38 + 2.66025042533875 x5i21
 + 5.38516473770142 x5i22 + 0 x5i23 + 6.32455539703369 x5i24
 + 3.96319723129272 x5i25 + 3.16227769851685 x5i26
 + 6.19590187072754 x5i27 + 0 x5i28 + 3.55787253379822 x5i29
 + 6.08276271820068 x5i30 + 5 x5i31 + 6.40312433242798 x5i32
 + 12.5609455108643 x5i33 + 12.5299644470215 x5i34
 + 8.48528099060059 x5i35 + 11.4017543792725 x5i36
 + 13.0383939743042 x5i37 + 12.5299644470215 x5i38
 + 7.38167524337769 x6i21 + 8.06225776672363 x6i22
 + 9.05538558959961 x6i23 + 4.24264049530029 x6i24
 + 8.4551362991333 x6i25 + 8.9442720413208 x6i26
 + 6.67864227294922 x6i27 + 9.05538558959961 x6i28
 + 12.3431129455566 x6i29 + 15.1327457427979 x6i30
 + 7.81024980545044 x6i31 + 13.6014709472656 x6i32
 + 11.0162000656128 x6i33 + 12.3693170547485 x6i34
 + 15.8113880157471 x6i35 + 99999 x6i36 + 12.1655282974243 x6i37
 + 12.3693170547485 x6i38 + 2.58165311813354 x7i21
 + 2.2360680103302 x7i22 + 4 x7i23 + 8.48528099060059 x7i24
 + 1.04581689834595 x7i25 + 7.07106781005859 x7i26
 + 9.32864379882812 x7i27 + 4 x7i28 + 4.34455728530884 x7i29
 + 7.81024980545044 x7i30 + 8.5440034866333 x7i31
 + 4.12310552597046 x7i32 + 15.9146146774292 x7i33
 + 16.1554946899414 x7i34 + 6.32455539703369 x7i35
 + 14.2126703262329 x7i36 + 16.5529365539551 x7i37
 + 16.1554946899414 x7i38 + 5.09889554977417 x8i21
 + 8.06225776672363 x8i22 + 3.16227769851685 x8i23
 + 5.0990195274353 x8i24 + 6.82672214508057 x8i25 + 0 x8i26
 + 3.81920695304871 x8i27 + 3.16227769851685 x8i28
 + 6.05624628067017 x8i29 + 7.28010988235474 x8i30
 + 2.2360680103302 x8i31 + 9.43398094177246 x8i32
 + 9.63265419006348 x8i33 + 9.43398094177246 x8i34
 + 11.4017543792725 x8i35 + 10.7703294754028 x8i36
 + 9.9999885559082 x8i37 + 9.43398094177246 x8i38
 + 14.6965894699097 x9i21 + 17.4642486572266 x9i22
 + 13.416407585144 x9i23 + 10 x9i24 + 16.5882587432861 x9i25
 + 10.2956304550171 x9i26 + 8.03266143798828 x9i27
 + 13.416407585144 x9i28 + 16.1895484924316 x9i29
 + 16.2788200378418 x9i30 + 8.5440034866333 x9i31 + 99999 x9i32
 + 2.66229867935181 x9i33 + x9i34 + 99999 x9i35 + 15.8113880157471 x9i36
 + 1.4141993522644 x9i37 + x9i38 + 8.27666187286377 x10i21 + 10 x10i22
 + 6.08276271820068 x10i23 + 12.0415945053101 x10i24
 + 8.52856540679932 x10i25 + 7.28010988235474 x10i26
 + 11.099232673645 x10i27 + 6.08276271820068 x10i28
 + 3.46570014953613 x10i29 + 0 x10i30 + 9.48683261871338 x10i31
 + 6.32455539703369 x10i32 + 16.3431835174561 x10i33
 + 15.6204996109009 x10i34 + 7 x10i35 + 6.70820379257202 x10i36
 + 16.4012031555176 x10i37 + 15.6204996109009 x10i38
 + 11.0926427841187 x11i21 + 11 x11i22 + 10.2956304550171 x11i23
 + 16.5529460906982 x11i24 + 10.099739074707 x11i25
 + 12.806248664856 x11i26 + 16.4050521850586 x11i27
 + 10.2956304550171 x11i28 + 6.80364322662354 x11i29
 + 6.70820379257202 x11i30 + 15 x11i31 + 5 x11i32 + 99999 x11i33
 + 99999 x11i34 + 3.16227769851685 x11i35 + 12 x11i36 + 99999 x11i37
 + 99999 x11i38 + 14.0100936889648 x12i21 + 16.2788200378418 x12i22
 + 11.4017543792725 x12i23 + 15.8113880157471 x12i24
 + 14.7595500946045 x12i25 + 10.7703294754028 x12i26
 + 13.9722061157227 x12i27 + 11.4017543792725 x12i28
 + 9.98195362091064 x12i29 + 6.70820379257202 x12i30
 + 12.3693170547485 x12i31 + 13 x12i32 + 16.9396457672119 x12i33
 + 15.5241746902466 x12i34 + 13.34166431427 x12i35 + 0 x12i36
 + 16.4924030303955 x12i37 + 15.5241746902466 x12i38
 + 6.19090700149536 x13i21 + 9.05538558959961 x13i22 + 5 x13i23
 + 3.60555124282837 x13i24 + 8.07044219970703 x13i25
 + 2.2360680103302 x13i26 + 1.66541910171509 x13i27 + 5 x13i28
 + 8.21512889862061 x13i29 + 9.48683261871338 x13i30 + 0 x13i31
 + 11.4017543792725 x13i32 + 7.56183815002441 x13i33
 + 7.61577320098877 x13i34 + 13.4536237716675 x13i35
 + 12.3693170547485 x13i36 + 8.06224822998047 x13i37
 + 7.61577320098877 x13i38 + 6.41176509857178 x14i21 + 6 x14i22
 + 6.40312433242798 x14i23 + 12.2065553665161 x14i24
 + 5.1663556098938 x14i25 + 9.43398094177246 x14i26
 + 12.5495195388794 x14i27 + 6.40312433242798 x14i28
 + 3.83413052558899 x14i29 + 6.32455539703369 x14i30
 + 11.4017543792725 x14i31 + 0 x14i32 + 18.9634876251221 x14i33
 + 18.8679618835449 x14i34 + 2.2360680103302 x14i35 + 13 x14i36
 + 19.4164772033691 x14i37 + 18.8679618835449 x14i38
 + 14.0933361053467 x15i21 + 16.5529460906982 x15i22
 + 13.4536237716675 x15i23 + 8.5440034866333 x15i24
 + 15.9585599899292 x15i25 + 10.6301460266113 x15i26
 + 7.33891439437866 x15i27 + 13.4536237716675 x15i28
 + 16.6810207366943 x15i29 + 17.4928550720215 x15i30
 + 8.48528099060059 x15i31 + 99999 x15i32 + 1.31843650341034 x15i33
 + 3.16227769851685 x15i34 + 99999 x15i35 + 18.2482872009277 x15i36
 + 2.23608589172363 x15i37 + 3.16227769851685 x15i38
 + 13.7436065673828 x16i21 + 16.4924221038818 x16i22
 + 12.5299644470215 x16i23 + 9 x16i24 + 15.6370401382446 x16i25
 + 9.43398094177246 x16i26 + 7.04856300354004 x16i27
 + 12.5299644470215 x16i28 + 15.383617401123 x16i29
 + 15.6204996109009 x16i30 + 7.61577320098877 x16i31
 + 18.8679618835449 x16i32 + 1.99053633213043 x16i33 + 0 x16i34
 + 99999 x16i35 + 15.5241746902466 x16i36 + 0.999979972839355 x16i37
 + 0 x16i38 + 8.64766597747803 x17i21 + 8.06225776672363 x17i22
 + 8.48528099060059 x17i23 + 14.4222049713135 x17i24
 + 7.35957431793213 x17i25 + 11.4017543792725 x17i26
 + 14.6732120513916 x17i27 + 8.48528099060059 x17i28
 + 5.46720600128174 x17i29 + 7 x17i30 + 13.4536237716675 x17i31
 + 2.2360680103302 x17i32 + 99999 x17i33 + 99999 x17i34 + 0 x17i35
 + 13.34166431427 x17i36 + 99999 x17i37 + 99999 x17i38
 + 15.4198875427246 x18i21 + 17.6918067932129 x18i22
 + 12.806248664856 x18i23 + 17.0880069732666 x18i24
 + 16.1728267669678 x18i25 + 12.0830459594727 x18i26
 + 15.1786365509033 x18i27 + 12.806248664856 x18i28
 + 11.3755445480347 x18i29 + 8.06225776672363 x18i30
 + 13.6014709472656 x18i31 + 14.3178215026855 x18i32
 + 17.788854598999 x18i33 + 16.2788200378418 x18i34
 + 14.5602197647095 x18i35 + 1.41421353816986 x18i36
 + 17.2626571655273 x18i37 + 16.2788200378418 x18i38
 + 14.0889863967896 x19i21 + 16.763053894043 x19i22
 + 13.0384044647217 x19i23 + 9.05538558959961 x19i24
 + 15.9829387664795 x19i25 + 10 x19i26 + 7.30446290969849 x19i27
 + 13.0384044647217 x19i28 + 16.010555267334 x19i29
 + 16.4012203216553 x19i30 + 8.06225776672363 x19i31
 + 19.4164886474609 x19i32 + 1.26337432861328 x19i33 + x19i34
 + 99999 x19i35 + 16.4924221038818 x19i36 + 1.99999994947575e-05 x19i37
 + x19i38 + 12.6048135757446 x20i21 + 15.5241746902466 x20i22
 + 10.1980390548706 x20i23 + 11.3137083053589 x20i24
 + 14.1550464630127 x20i25 + 7.61577320098877 x20i26
 + 8.91388320922852 x20i27 + 10.1980390548706 x20i28
 + 11.3027544021606 x20i29 + 9.84885787963867 x20i30
 + 7.81024980545044 x20i31 + 15.1327457427979 x20i32
 + 9.68326377868652 x20i33 + 8.06225776672363 x20i34
 + 16.4924221038818 x20i35 + 7.61577320098877 x20i36
 + 9.05536556243896 x20i37 + 8.06225776672363 x20i38
 + 2.96437740325928 x21i22 + 2.66025042533875 x21i23
 + 5.91267538070679 x21i24 + 1.89465892314911 x21i25
 + 5.09889554977417 x21i26 + 6.81228256225586 x21i27
 + 2.66025042533875 x21i28 + 5.10242748260498 x21i29
 + 8.27666187286377 x21i30 + 6.19090700149536 x21i31
 + 6.41176509857178 x21i32 + 13.4015874862671 x21i33
 + 13.7436065673828 x21i34 + 8.64766597747803 x21i35
 + 14.0100936889648 x21i36 + 14.088978767395 x21i37
 + 13.7436065673828 x21i38 + 5.38516473770142 x22i23
 + 8.06225776672363 x22i24 + 1.52152323722839 x22i25
 + 8.06225776672363 x22i26 + 9.46192741394043 x22i27
 + 5.38516473770142 x22i28 + 6.54169368743896 x22i29 + 10 x22i30
 + 9.05538558959961 x22i31 + 6 x22i32 + 15.9817743301392 x22i33
 + 16.4924221038818 x22i34 + 8.06225776672363 x22i35
 + 16.2788200378418 x22i36 + 16.7630481719971 x22i37
 + 16.4924221038818 x22i38 + 6.32455539703369 x23i24
 + 3.96319723129272 x23i25 + 3.16227769851685 x23i26
 + 6.19590187072754 x23i27 + 0 x23i28 + 3.55787253379822 x23i29
 + 6.08276271820068 x23i30 + 5 x23i31 + 6.40312433242798 x23i32
 + 12.5609455108643 x23i33 + 12.5299644470215 x23i34
 + 8.48528099060059 x23i35 + 11.4017543792725 x23i36
 + 13.0383939743042 x23i37 + 12.5299644470215 x23i38
 + 7.65750169754028 x24i25 + 5.0990195274353 x24i26
 + 2.47176861763 x24i27 + 6.32455539703369 x24i28
 + 9.88146209716797 x24i29 + 12.0415945053101 x24i30
 + 3.60555124282837 x24i31 + 12.2065553665161 x24i32
 + 8.11368179321289 x24i33 + 9 x24i34 + 14.4222049713135 x24i35
 + 15.8113880157471 x24i36 + 9.05538272857666 x24i37 + 9 x24i38
 + 6.82672214508057 x25i26 + 8.70038986206055 x25i27
 + 3.96319723129272 x25i28 + 5.08898639678955 x25i29
 + 8.52856540679932 x25i30 + 8.07044219970703 x25i31
 + 5.1663556098938 x25i32 + 15.286883354187 x25i33
 + 15.6370401382446 x25i34 + 7.35957431793213 x25i35
 + 14.7595500946045 x25i36 + 15.982931137085 x25i37
 + 15.6370401382446 x25i38 + 3.81920695304871 x26i27
 + 3.16227769851685 x26i28 + 6.05624628067017 x26i29
 + 7.28010988235474 x26i30 + 2.2360680103302 x26i31
 + 9.43398094177246 x26i32 + 9.63265419006348 x26i33
 + 9.43398094177246 x26i34 + 11.4017543792725 x26i35
 + 10.7703294754028 x26i36 + 9.9999885559082 x26i37
 + 9.43398094177246 x26i38 + 6.19590187072754 x27i28
 + 9.60143375396729 x27i29 + 11.099232673645 x27i30
 + 1.66541910171509 x27i31 + 12.5495195388794 x27i32
 + 6.5903377532959 x27i33 + 7.04856300354004 x27i34
 + 14.6732120513916 x27i35 + 13.9722061157227 x27i36
 + 7.30445671081543 x27i37 + 7.04856300354004 x27i38
 + 3.55787253379822 x28i29 + 6.08276271820068 x28i30 + 5 x28i31
 + 6.40312433242798 x28i32 + 12.5609455108643 x28i33
 + 12.5299644470215 x28i34 + 8.48528099060059 x28i35
 + 11.4017543792725 x28i36 + 13.0383939743042 x28i37
 + 12.5299644470215 x28i38 + 3.46570014953613 x29i30
 + 8.21512889862061 x29i31 + 3.83413052558899 x29i32
 + 15.6869421005249 x29i33 + 15.383617401123 x29i34
 + 5.46720600128174 x29i35 + 9.98195362091064 x29i36
 + 16.0105419158936 x29i37 + 15.383617401123 x29i38
 + 9.48683261871338 x30i31 + 6.32455539703369 x30i32
 + 16.3431835174561 x30i33 + 15.6204996109009 x30i34 + 7 x30i35
 + 6.70820379257202 x30i36 + 16.4012031555176 x30i37
 + 15.6204996109009 x30i38 + 11.4017543792725 x31i32
 + 7.56183815002441 x31i33 + 7.61577320098877 x31i34
 + 13.4536237716675 x31i35 + 12.3693170547485 x31i36
 + 8.06224822998047 x31i37 + 7.61577320098877 x31i38 + 99999 x32i33
 + 99999 x32i34 + 2.2360680103302 x32i35 + 13 x32i36 + 99999 x32i37
 + 99999 x32i38 + 1.99053633213043 x33i34 + 99999 x33i35
 + 16.9396457672119 x33i36 + 1.26338517665863 x33i37
 + 1.99053633213043 x33i38 + 99999 x34i35 + 15.5241746902466 x34i36
 + 0.999979972839355 x34i37 + 0 x34i38 + 13.34166431427 x35i36
 + 99999 x35i37 + 99999 x35i38 + 16.4924030303955 x36i37
 + 15.5241746902466 x36i38 + 0.999979972839355 x37i38

Subject To
 p1: 0 x1i21 = 1
 p2: 0 x1i21 = 1
 p3: 0 x1i21 = 1
 p4: 0 x1i21 = 1
 p5: 0 x1i21 = 1
 p6: 0 x1i21 = 1
 p7: 0 x1i21 = 1
 p8: 0 x1i21 = 1
 p9: 0 x1i21 = 1
 p10: 0 x1i21 = 1
 p11: 0 x1i21 = 1
 p12: 0 x1i21 = 1
 p13: 0 x1i21 = 1
 p14: 0 x1i21 = 1
 p15: 0 x1i21 = 1
 p16: 0 x1i21 = 1
 p17: 0 x1i21 = 1
 p18: 0 x1i21 = 1
 p19: 0 x1i21 = 1
 p20: 0 x1i21 = 1
 q21: 0 x1i21 = 3
 q22: 0 x1i21 = 3
 q23: 0 x1i21 = 3
 q24: 0 x1i21 = 3
 q25: 0 x1i21 = 3
 q26: 0 x1i21 = 3
 q27: 0 x1i21 = 3
 q28: 0 x1i21 = 3
 q29: 0 x1i21 = 3
 q30: 0 x1i21 = 3
 q31: 0 x1i21 = 3
 q32: 0 x1i21 = 3
 q33: 0 x1i21 = 3
 q34: 0 x1i21 = 3
 q35: 0 x1i21 = 3
 q36: 0 x1i21 = 3
 q37: 0 x1i21 = 3
 q38: 0 x1i21 = 3

Bounds
 0 <= x1i21 <= 1
 0 <= x1i22 <= 1
 0 <= x1i23 <= 1
 0 <= x1i24 <= 1
 0 <= x1i25 <= 1
 0 <= x1i26 <= 1
 0 <= x1i27 <= 1
 0 <= x1i28 <= 1
 0 <= x1i29 <= 1
 0 <= x1i30 <= 1
 0 <= x1i31 <= 1
 0 <= x1i32 <= 1
 0 <= x1i33 <= 1
 0 <= x1i34 <= 1
 0 <= x1i35 <= 1
 0 <= x1i36 <= 1
 0 <= x1i37 <= 1
 0 <= x1i38 <= 1
 0 <= x2i21 <= 1
 0 <= x2i22 <= 1
 0 <= x2i23 <= 1
 0 <= x2i24 <= 1
 0 <= x2i25 <= 1
 0 <= x2i26 <= 1
 0 <= x2i27 <= 1
 0 <= x2i28 <= 1
 0 <= x2i29 <= 1
 0 <= x2i30 <= 1
 0 <= x2i31 <= 1
 0 <= x2i32 <= 1
 0 <= x2i33 <= 1
 0 <= x2i34 <= 1
 0 <= x2i35 <= 1
 0 <= x2i36 <= 1
 0 <= x2i37 <= 1
 0 <= x2i38 <= 1
 0 <= x3i21 <= 1
 0 <= x3i22 <= 1
 0 <= x3i23 <= 1
 0 <= x3i24 <= 1
 0 <= x3i25 <= 1
 0 <= x3i26 <= 1
 0 <= x3i27 <= 1
 0 <= x3i28 <= 1
 0 <= x3i29 <= 1
 0 <= x3i30 <= 1
 0 <= x3i31 <= 1
 0 <= x3i32 <= 1
 0 <= x3i33 <= 1
 0 <= x3i34 <= 1
 0 <= x3i35 <= 1
 0 <= x3i36 <= 1
 0 <= x3i37 <= 1
 0 <= x3i38 <= 1
 0 <= x4i21 <= 1
 0 <= x4i22 <= 1
 0 <= x4i23 <= 1
 0 <= x4i24 <= 1
 0 <= x4i25 <= 1
 0 <= x4i26 <= 1
 0 <= x4i27 <= 1
 0 <= x4i28 <= 1
 0 <= x4i29 <= 1
 0 <= x4i30 <= 1
 0 <= x4i31 <= 1
 0 <= x4i32 <= 1
 0 <= x4i33 <= 1
 0 <= x4i34 <= 1
 0 <= x4i35 <= 1
 x4i36 = 0
 0 <= x4i37 <= 1
 0 <= x4i38 <= 1
 0 <= x5i21 <= 1
 0 <= x5i22 <= 1
 0 <= x5i23 <= 1
 0 <= x5i24 <= 1
 0 <= x5i25 <= 1
 0 <= x5i26 <= 1
 0 <= x5i27 <= 1
 0 <= x5i28 <= 1
 0 <= x5i29 <= 1
 0 <= x5i30 <= 1
 0 <= x5i31 <= 1
 0 <= x5i32 <= 1
 0 <= x5i33 <= 1
 0 <= x5i34 <= 1
 0 <= x5i35 <= 1
 0 <= x5i36 <= 1
 0 <= x5i37 <= 1
 0 <= x5i38 <= 1
 0 <= x6i21 <= 1
 0 <= x6i22 <= 1
 0 <= x6i23 <= 1
 0 <= x6i24 <= 1
 0 <= x6i25 <= 1
 0 <= x6i26 <= 1
 0 <= x6i27 <= 1
 0 <= x6i28 <= 1
 0 <= x6i29 <= 1
 0 <= x6i30 <= 1
 0 <= x6i31 <= 1
 0 <= x6i32 <= 1
 0 <= x6i33 <= 1
 0 <= x6i34 <= 1
 0 <= x6i35 <= 1
 x6i36 = 0
 0 <= x6i37 <= 1
 0 <= x6i38 <= 1
 0 <= x7i21 <= 1
 0 <= x7i22 <= 1
 0 <= x7i23 <= 1
 0 <= x7i24 <= 1
 0 <= x7i25 <= 1
 0 <= x7i26 <= 1
 0 <= x7i27 <= 1
 0 <= x7i28 <= 1
 0 <= x7i29 <= 1
 0 <= x7i30 <= 1
 0 <= x7i31 <= 1
 0 <= x7i32 <= 1
 0 <= x7i33 <= 1
 0 <= x7i34 <= 1
 0 <= x7i35 <= 1
 0 <= x7i36 <= 1
 0 <= x7i37 <= 1
 0 <= x7i38 <= 1
 0 <= x8i21 <= 1
 0 <= x8i22 <= 1
 0 <= x8i23 <= 1
 0 <= x8i24 <= 1
 0 <= x8i25 <= 1
 0 <= x8i26 <= 1
 0 <= x8i27 <= 1
 0 <= x8i28 <= 1
 0 <= x8i29 <= 1
 0 <= x8i30 <= 1
 0 <= x8i31 <= 1
 0 <= x8i32 <= 1
 0 <= x8i33 <= 1
 0 <= x8i34 <= 1
 0 <= x8i35 <= 1
 0 <= x8i36 <= 1
 0 <= x8i37 <= 1
 0 <= x8i38 <= 1
 0 <= x9i21 <= 1
 0 <= x9i22 <= 1
 0 <= x9i23 <= 1
 0 <= x9i24 <= 1
 0 <= x9i25 <= 1
 0 <= x9i26 <= 1
 0 <= x9i27 <= 1
 0 <= x9i28 <= 1
 0 <= x9i29 <= 1
 0 <= x9i30 <= 1
 0 <= x9i31 <= 1
 x9i32 = 0
 0 <= x9i33 <= 1
 0 <= x9i34 <= 1
 x9i35 = 0
 0 <= x9i36 <= 1
 0 <= x9i37 <= 1
 0 <= x9i38 <= 1
 0 <= x10i21 <= 1
 0 <= x10i22 <= 1
 0 <= x10i23 <= 1
 0 <= x10i24 <= 1
 0 <= x10i25 <= 1
 0 <= x10i26 <= 1
 0 <= x10i27 <= 1
 0 <= x10i28 <= 1
 0 <= x10i29 <= 1
 0 <= x10i30 <= 1
 0 <= x10i31 <= 1
 0 <= x10i32 <= 1
 0 <= x10i33 <= 1
 0 <= x10i34 <= 1
 0 <= x10i35 <= 1
 0 <= x10i36 <= 1
 0 <= x10i37 <= 1
 0 <= x10i38 <= 1
 0 <= x11i21 <= 1
 0 <= x11i22 <= 1
 0 <= x11i23 <= 1
 0 <= x11i24 <= 1
 0 <= x11i25 <= 1
 0 <= x11i26 <= 1
 0 <= x11i27 <= 1
 0 <= x11i28 <= 1
 0 <= x11i29 <= 1
 0 <= x11i30 <= 1
 0 <= x11i31 <= 1
 0 <= x11i32 <= 1
 x11i33 = 0
 x11i34 = 0
 0 <= x11i35 <= 1
 0 <= x11i36 <= 1
 x11i37 = 0
 x11i38 = 0
 0 <= x12i21 <= 1
 0 <= x12i22 <= 1
 0 <= x12i23 <= 1
 0 <= x12i24 <= 1
 0 <= x12i25 <= 1
 0 <= x12i26 <= 1
 0 <= x12i27 <= 1
 0 <= x12i28 <= 1
 0 <= x12i29 <= 1
 0 <= x12i30 <= 1
 0 <= x12i31 <= 1
 0 <= x12i32 <= 1
 0 <= x12i33 <= 1
 0 <= x12i34 <= 1
 0 <= x12i35 <= 1
 0 <= x12i36 <= 1
 0 <= x12i37 <= 1
 0 <= x12i38 <= 1
 0 <= x13i21 <= 1
 0 <= x13i22 <= 1
 0 <= x13i23 <= 1
 0 <= x13i24 <= 1
 0 <= x13i25 <= 1
 0 <= x13i26 <= 1
 0 <= x13i27 <= 1
 0 <= x13i28 <= 1
 0 <= x13i29 <= 1
 0 <= x13i30 <= 1
 0 <= x13i31 <= 1
 0 <= x13i32 <= 1
 0 <= x13i33 <= 1
 0 <= x13i34 <= 1
 0 <= x13i35 <= 1
 0 <= x13i36 <= 1
 0 <= x13i37 <= 1
 0 <= x13i38 <= 1
 0 <= x14i21 <= 1
 0 <= x14i22 <= 1
 0 <= x14i23 <= 1
 0 <= x14i24 <= 1
 0 <= x14i25 <= 1
 0 <= x14i26 <= 1
 0 <= x14i27 <= 1
 0 <= x14i28 <= 1
 0 <= x14i29 <= 1
 0 <= x14i30 <= 1
 0 <= x14i31 <= 1
 0 <= x14i32 <= 1
 0 <= x14i33 <= 1
 0 <= x14i34 <= 1
 0 <= x14i35 <= 1
 0 <= x14i36 <= 1
 0 <= x14i37 <= 1
 0 <= x14i38 <= 1
 0 <= x15i21 <= 1
 0 <= x15i22 <= 1
 0 <= x15i23 <= 1
 0 <= x15i24 <= 1
 0 <= x15i25 <= 1
 0 <= x15i26 <= 1
 0 <= x15i27 <= 1
 0 <= x15i28 <= 1
 0 <= x15i29 <= 1
 0 <= x15i30 <= 1
 0 <= x15i31 <= 1
 x15i32 = 0
 0 <= x15i33 <= 1
 0 <= x15i34 <= 1
 x15i35 = 0
 0 <= x15i36 <= 1
 0 <= x15i37 <= 1
 0 <= x15i38 <= 1
 0 <= x16i21 <= 1
 0 <= x16i22 <= 1
 0 <= x16i23 <= 1
 0 <= x16i24 <= 1
 0 <= x16i25 <= 1
 0 <= x16i26 <= 1
 0 <= x16i27 <= 1
 0 <= x16i28 <= 1
 0 <= x16i29 <= 1
 0 <= x16i30 <= 1
 0 <= x16i31 <= 1
 0 <= x16i32 <= 1
 0 <= x16i33 <= 1
 0 <= x16i34 <= 1
 x16i35 = 0
 0 <= x16i36 <= 1
 0 <= x16i37 <= 1
 0 <= x16i38 <= 1
 0 <= x17i21 <= 1
 0 <= x17i22 <= 1
 0 <= x17i23 <= 1
 0 <= x17i24 <= 1
 0 <= x17i25 <= 1
 0 <= x17i26 <= 1
 0 <= x17i27 <= 1
 0 <= x17i28 <= 1
 0 <= x17i29 <= 1
 0 <= x17i30 <= 1
 0 <= x17i31 <= 1
 0 <= x17i32 <= 1
 x17i33 = 0
 x17i34 = 0
 0 <= x17i35 <= 1
 0 <= x17i36 <= 1
 x17i37 = 0
 x17i38 = 0
 0 <= x18i21 <= 1
 0 <= x18i22 <= 1
 0 <= x18i23 <= 1
 0 <= x18i24 <= 1
 0 <= x18i25 <= 1
 0 <= x18i26 <= 1
 0 <= x18i27 <= 1
 0 <= x18i28 <= 1
 0 <= x18i29 <= 1
 0 <= x18i30 <= 1
 0 <= x18i31 <= 1
 0 <= x18i32 <= 1
 0 <= x18i33 <= 1
 0 <= x18i34 <= 1
 0 <= x18i35 <= 1
 0 <= x18i36 <= 1
 0 <= x18i37 <= 1
 0 <= x18i38 <= 1
 0 <= x19i21 <= 1
 0 <= x19i22 <= 1
 0 <= x19i23 <= 1
 0 <= x19i24 <= 1
 0 <= x19i25 <= 1
 0 <= x19i26 <= 1
 0 <= x19i27 <= 1
 0 <= x19i28 <= 1
 0 <= x19i29 <= 1
 0 <= x19i30 <= 1
 0 <= x19i31 <= 1
 0 <= x19i32 <= 1
 0 <= x19i33 <= 1
 0 <= x19i34 <= 1
 x19i35 = 0
 0 <= x19i36 <= 1
 0 <= x19i37 <= 1
 0 <= x19i38 <= 1
 0 <= x20i21 <= 1
 0 <= x20i22 <= 1
 0 <= x20i23 <= 1
 0 <= x20i24 <= 1
 0 <= x20i25 <= 1
 0 <= x20i26 <= 1
 0 <= x20i27 <= 1
 0 <= x20i28 <= 1
 0 <= x20i29 <= 1
 0 <= x20i30 <= 1
 0 <= x20i31 <= 1
 0 <= x20i32 <= 1
 0 <= x20i33 <= 1
 0 <= x20i34 <= 1
 0 <= x20i35 <= 1
 0 <= x20i36 <= 1
 0 <= x20i37 <= 1
 0 <= x20i38 <= 1
 0 <= x21i22 <= 1
 0 <= x21i23 <= 1
 0 <= x21i24 <= 1
 0 <= x21i25 <= 1
 0 <= x21i26 <= 1
 0 <= x21i27 <= 1
 0 <= x21i28 <= 1
 0 <= x21i29 <= 1
 0 <= x21i30 <= 1
 0 <= x21i31 <= 1
 0 <= x21i32 <= 1
 0 <= x21i33 <= 1
 0 <= x21i34 <= 1
 0 <= x21i35 <= 1
 0 <= x21i36 <= 1
 0 <= x21i37 <= 1
 0 <= x21i38 <= 1
 0 <= x22i23 <= 1
 0 <= x22i24 <= 1
 0 <= x22i25 <= 1
 0 <= x22i26 <= 1
 0 <= x22i27 <= 1
 0 <= x22i28 <= 1
 0 <= x22i29 <= 1
 0 <= x22i30 <= 1
 0 <= x22i31 <= 1
 0 <= x22i32 <= 1
 0 <= x22i33 <= 1
 0 <= x22i34 <= 1
 0 <= x22i35 <= 1
 0 <= x22i36 <= 1
 0 <= x22i37 <= 1
 0 <= x22i38 <= 1
 0 <= x23i24 <= 1
 0 <= x23i25 <= 1
 0 <= x23i26 <= 1
 0 <= x23i27 <= 1
 0 <= x23i28 <= 1
 0 <= x23i29 <= 1
 0 <= x23i30 <= 1
 0 <= x23i31 <= 1
 0 <= x23i32 <= 1
 0 <= x23i33 <= 1
 0 <= x23i34 <= 1
 0 <= x23i35 <= 1
 0 <= x23i36 <= 1
 0 <= x23i37 <= 1
 0 <= x23i38 <= 1
 0 <= x24i25 <= 1
 0 <= x24i26 <= 1
 0 <= x24i27 <= 1
 0 <= x24i28 <= 1
 0 <= x24i29 <= 1
 0 <= x24i30 <= 1
 0 <= x24i31 <= 1
 0 <= x24i32 <= 1
 0 <= x24i33 <= 1
 0 <= x24i34 <= 1
 0 <= x24i35 <= 1
 0 <= x24i36 <= 1
 0 <= x24i37 <= 1
 0 <= x24i38 <= 1
 0 <= x25i26 <= 1
 0 <= x25i27 <= 1
 0 <= x25i28 <= 1
 0 <= x25i29 <= 1
 0 <= x25i30 <= 1
 0 <= x25i31 <= 1
 0 <= x25i32 <= 1
 0 <= x25i33 <= 1
 0 <= x25i34 <= 1
 0 <= x25i35 <= 1
 0 <= x25i36 <= 1
 0 <= x25i37 <= 1
 0 <= x25i38 <= 1
 0 <= x26i27 <= 1
 0 <= x26i28 <= 1
 0 <= x26i29 <= 1
 0 <= x26i30 <= 1
 0 <= x26i31 <= 1
 0 <= x26i32 <= 1
 0 <= x26i33 <= 1
 0 <= x26i34 <= 1
 0 <= x26i35 <= 1
 0 <= x26i36 <= 1
 0 <= x26i37 <= 1
 0 <= x26i38 <= 1
 0 <= x27i28 <= 1
 0 <= x27i29 <= 1
 0 <= x27i30 <= 1
 0 <= x27i31 <= 1
 0 <= x27i32 <= 1
 0 <= x27i33 <= 1
 0 <= x27i34 <= 1
 0 <= x27i35 <= 1
 0 <= x27i36 <= 1
 0 <= x27i37 <= 1
 0 <= x27i38 <= 1
 0 <= x28i29 <= 1
 0 <= x28i30 <= 1
 0 <= x28i31 <= 1
 0 <= x28i32 <= 1
 0 <= x28i33 <= 1
 0 <= x28i34 <= 1
 0 <= x28i35 <= 1
 0 <= x28i36 <= 1
 0 <= x28i37 <= 1
 0 <= x28i38 <= 1
 0 <= x29i30 <= 1
 0 <= x29i31 <= 1
 0 <= x29i32 <= 1
 0 <= x29i33 <= 1
 0 <= x29i34 <= 1
 0 <= x29i35 <= 1
 0 <= x29i36 <= 1
 0 <= x29i37 <= 1
 0 <= x29i38 <= 1
 0 <= x30i31 <= 1
 0 <= x30i32 <= 1
 0 <= x30i33 <= 1
 0 <= x30i34 <= 1
 0 <= x30i35 <= 1
 0 <= x30i36 <= 1
 0 <= x30i37 <= 1
 0 <= x30i38 <= 1
 0 <= x31i32 <= 1
 0 <= x31i33 <= 1
 0 <= x31i34 <= 1
 0 <= x31i35 <= 1
 0 <= x31i36 <= 1
 0 <= x31i37 <= 1
 0 <= x31i38 <= 1
 x32i33 = 0
 x32i34 = 0
 0 <= x32i35 <= 1
 0 <= x32i36 <= 1
 x32i37 = 0
 x32i38 = 0
 0 <= x33i34 <= 1
 x33i35 = 0
 0 <= x33i36 <= 1
 0 <= x33i37 <= 1
 0 <= x33i38 <= 1
 x34i35 = 0
 0 <= x34i36 <= 1
 0 <= x34i37 <= 1
 0 <= x34i38 <= 1
 0 <= x35i36 <= 1
 x35i37 = 0
 x35i38 = 0
 0 <= x36i37 <= 1
 0 <= x36i38 <= 1
 0 <= x37i38 <= 1

Generals
 x1i21
 x1i22
 x1i23
 x1i24
 x1i25
 x1i26
 x1i27
 x1i28
 x1i29
 x1i30
 x1i31
 x1i32
 x1i33
 x1i34
 x1i35
 x1i36
 x1i37
 x1i38
 x2i21
 x2i22
 x2i23
 x2i24
 x2i25
 x2i26
 x2i27
 x2i28
 x2i29
 x2i30
 x2i31
 x2i32
 x2i33
 x2i34
 x2i35
 x2i36
 x2i37
 x2i38
 x3i21
 x3i22
 x3i23
 x3i24
 x3i25
 x3i26
 x3i27
 x3i28
 x3i29
 x3i30
 x3i31
 x3i32
 x3i33
 x3i34
 x3i35
 x3i36
 x3i37
 x3i38
 x4i21
 x4i22
 x4i23
 x4i24
 x4i25
 x4i26
 x4i27
 x4i28
 x4i29
 x4i30
 x4i31
 x4i32
 x4i33
 x4i34
 x4i35
 x4i36
 x4i37
 x4i38
 x5i21
 x5i22
 x5i23
 x5i24
 x5i25
 x5i26
 x5i27
 x5i28
 x5i29
 x5i30
 x5i31
 x5i32
 x5i33
 x5i34
 x5i35
 x5i36
 x5i37
 x5i38
 x6i21
 x6i22
 x6i23
 x6i24
 x6i25
 x6i26
 x6i27
 x6i28
 x6i29
 x6i30
 x6i31
 x6i32
 x6i33
 x6i34
 x6i35
 x6i36
 x6i37
 x6i38
 x7i21
 x7i22
 x7i23
 x7i24
 x7i25
 x7i26
 x7i27
 x7i28
 x7i29
 x7i30
 x7i31
 x7i32
 x7i33
 x7i34
 x7i35
 x7i36
 x7i37
 x7i38
 x8i21
 x8i22
 x8i23
 x8i24
 x8i25
 x8i26
 x8i27
 x8i28
 x8i29
 x8i30
 x8i31
 x8i32
 x8i33
 x8i34
 x8i35
 x8i36
 x8i37
 x8i38
 x9i21
 x9i22
 x9i23
 x9i24
 x9i25
 x9i26
 x9i27
 x9i28
 x9i29
 x9i30
 x9i31
 x9i32
 x9i33
 x9i34
 x9i35
 x9i36
 x9i37
 x9i38
 x10i21
 x10i22
 x10i23
 x10i24
 x10i25
 x10i26
 x10i27
 x10i28
 x10i29
 x10i30
 x10i31
 x10i32
 x10i33
 x10i34
 x10i35
 x10i36
 x10i37
 x10i38
 x11i21
 x11i22
 x11i23
 x11i24
 x11i25
 x11i26
 x11i27
 x11i28
 x11i29
 x11i30
 x11i31
 x11i32
 x11i33
 x11i34
 x11i35
 x11i36
 x11i37
 x11i38
 x12i21
 x12i22
 x12i23
 x12i24
 x12i25
 x12i26
 x12i27
 x12i28
 x12i29
 x12i30
 x12i31
 x12i32
 x12i33
 x12i34
 x12i35
 x12i36
 x12i37
 x12i38
 x13i21
 x13i22
 x13i23
 x13i24
 x13i25
 x13i26
 x13i27
 x13i28
 x13i29
 x13i30
 x13i31
 x13i32
 x13i33
 x13i34
 x13i35
 x13i36
 x13i37
 x13i38
 x14i21
 x14i22
 x14i23
 x14i24
 x14i25
 x14i26
 x14i27
 x14i28
 x14i29
 x14i30
 x14i31
 x14i32
 x14i33
 x14i34
 x14i35
 x14i36
 x14i37
 x14i38
 x15i21
 x15i22
 x15i23
 x15i24
 x15i25
 x15i26
 x15i27
 x15i28
 x15i29
 x15i30
 x15i31
 x15i32
 x15i33
 x15i34
 x15i35
 x15i36
 x15i37
 x15i38
 x16i21
 x16i22
 x16i23
 x16i24
 x16i25
 x16i26
 x16i27
 x16i28
 x16i29
 x16i30
 x16i31
 x16i32
 x16i33
 x16i34
 x16i35
 x16i36
 x16i37
 x16i38
 x17i21
 x17i22
 x17i23
 x17i24
 x17i25
 x17i26
 x17i27
 x17i28
 x17i29
 x17i30
 x17i31
 x17i32
 x17i33
 x17i34
 x17i35
 x17i36
 x17i37
 x17i38
 x18i21
 x18i22
 x18i23
 x18i24
 x18i25
 x18i26
 x18i27
 x18i28
 x18i29
 x18i30
 x18i31
 x18i32
 x18i33
 x18i34
 x18i35
 x18i36
 x18i37
 x18i38
 x19i21
 x19i22
 x19i23
 x19i24
 x19i25
 x19i26
 x19i27
 x19i28
 x19i29
 x19i30
 x19i31
 x19i32
 x19i33
 x19i34
 x19i35
 x19i36
 x19i37
 x19i38
 x20i21
 x20i22
 x20i23
 x20i24
 x20i25
 x20i26
 x20i27
 x20i28
 x20i29
 x20i30
 x20i31
 x20i32
 x20i33
 x20i34
 x20i35
 x20i36
 x20i37
 x20i38
 x21i22
 x21i23
 x21i24
 x21i25
 x21i26
 x21i27
 x21i28
 x21i29
 x21i30
 x21i31
 x21i32
 x21i33
 x21i34
 x21i35
 x21i36
 x21i37
 x21i38
 x22i23
 x22i24
 x22i25
 x22i26
 x22i27
 x22i28
 x22i29
 x22i30
 x22i31
 x22i32
 x22i33
 x22i34
 x22i35
 x22i36
 x22i37
 x22i38
 x23i24
 x23i25
 x23i26
 x23i27
 x23i28
 x23i29
 x23i30
 x23i31
 x23i32
 x23i33
 x23i34
 x23i35
 x23i36
 x23i37
 x23i38
 x24i25
 x24i26
 x24i27
 x24i28
 x24i29
 x24i30
 x24i31
 x24i32
 x24i33
 x24i34
 x24i35
 x24i36
 x24i37
 x24i38
 x25i26
 x25i27
 x25i28
 x25i29
 x25i30
 x25i31
 x25i32
 x25i33
 x25i34
 x25i35
 x25i36
 x25i37
 x25i38
 x26i27
 x26i28
 x26i29
 x26i30
 x26i31
 x26i32
 x26i33
 x26i34
 x26i35
 x26i36
 x26i37
 x26i38
 x27i28
 x27i29
 x27i30
 x27i31
 x27i32
 x27i33
 x27i34
 x27i35
 x27i36
 x27i37
 x27i38
 x28i29
 x28i30
 x28i31
 x28i32
 x28i33
 x28i34
 x28i35
 x28i36
 x28i37
 x28i38
 x29i30
 x29i31
 x29i32
 x29i33
 x29i34
 x29i35
 x29i36
 x29i37
 x29i38
 x30i31
 x30i32
 x30i33
 x30i34
 x30i35
 x30i36
 x30i37
 x30i38
 x31i32
 x31i33
 x31i34
 x31i35
 x31i36
 x31i37
 x31i38
 x32i33
 x32i34
 x32i35
 x32i36
 x32i37
 x32i38
 x33i34
 x33i35
 x33i36
 x33i37
 x33i38
 x34i35
 x34i36
 x34i37
 x34i38
 x35i36
 x35i37
 x35i38
 x36i37
 x36i38
 x37i38

End
